File : Instances/p65
Used 134s
25958

1 0 1 0 1 0 0 0 0 0 0 0 1 1 0 0 0 0 1 0 1 1 0 1 0 0 0 0 1 0 
18 28 21 18 2 12 21 28 18 28 4 28 13 13 28 18 13 20 18 0 18 21 23 0 23 18 18 28 4 2 4 4 4 21 28 12 20 20 21 21 18 20 12 4 20 4 13 21 28 20 0 21 2 21 20 12 18 20 18 18 4 0 18 20 13 12 23 28 28 12 18 12 4 20 23 23 20 23 20 21 23 0 20 12 4 13 4 2 18 18 28 4 18 12 2 13 28 12 0 28 28 21 12 18 4 0 4 21 18 13 4 4 18 12 12 20 28 18 0 20 20 12 28 4 4 21 2 12 4 0 28 21 12 20 23 20 13 13 28 20 12 18 12 12 12 2 21 21 18 12 0 0 23 0 20 28 2 21 13 13 13 0 23 2 23 28 23 4 13 21 23 20 28 20 4 2 0 20 4 20 2 21 2 28 12 20 28 23 0 21 2 21 12 4 18 12 18 21 23 28 
